
Gurobi 10.0.3 (linux64, gurobi_cl) logging started Thu Nov  2 11:45:00 2023

Set parameter Username
Set parameter TimeLimit to value 3600
Set parameter LogFile to value "RCPSP_899.log"
Set parameter Threads to value 32
Academic license - for non-commercial use only - expires 2024-10-30
Using license file /home/jrivera6/gurobi-licenses/v1003/compute-0-34/gurobi.lic

Gurobi Optimizer version 10.0.3 build v10.0.3rc0 (linux64)
Copyright (c) 2023, Gurobi Optimization, LLC

Read MPS format model from file RCPSP_899.mps
Reading time = 0.04 seconds
RCPSP_899: 19662 rows, 7750 columns, 68337 nonzeros

CPU model: Intel(R) Xeon(R) Gold 6130 CPU @ 2.10GHz, instruction set [SSE2|AVX|AVX2|AVX512]
Thread count: 32 physical cores, 32 logical processors, using up to 32 threads

Optimize a model with 19662 rows, 7750 columns and 68337 nonzeros
Model fingerprint: 0xee295915
Variable types: 62 continuous, 7688 integer (7688 binary)
Coefficient statistics:
  Matrix range     [1e+00, 3e+02]
  Objective range  [1e+00, 1e+00]
  Bounds range     [1e+00, 1e+00]
  RHS range        [1e+00, 3e+02]
Presolve removed 9088 rows and 3462 columns
Presolve time: 4.78s
Presolved: 10574 rows, 4288 columns, 37952 nonzeros
Variable types: 61 continuous, 4227 integer (4227 binary)

Root relaxation: objective 7.000000e+01, 1288 iterations, 0.02 seconds (0.01 work units)
Total elapsed time = 5.01s

    Nodes    |    Current Node    |     Objective Bounds      |     Work
 Expl Unexpl |  Obj  Depth IntInf | Incumbent    BestBd   Gap | It/Node Time

     0     0   70.00000    0   66          -   70.00000      -     -    5s
     0     0   70.00000    0  279          -   70.00000      -     -    7s
     0     0   70.00000    0  282          -   70.00000      -     -    8s
     0     0   70.00000    0   42          -   70.00000      -     -   10s
     0     0   70.00000    0   82          -   70.00000      -     -   10s
     0     0   70.00000    0   32          -   70.00000      -     -   10s
     0     0   70.00000    0  120          -   70.00000      -     -   11s
     0     0   70.00000    0  140          -   70.00000      -     -   11s
     0     0   70.00000    0  201          -   70.00000      -     -   12s
     0     0   70.00000    0   30          -   70.00000      -     -   13s
     0     0   70.00000    0  113          -   70.00000      -     -   13s
     0     0   70.00000    0   47          -   70.00000      -     -   14s
     0     0   70.00000    0  195          -   70.00000      -     -   14s
     0     0   70.00000    0   60          -   70.00000      -     -   16s
H    0     0                     313.0000000   70.00000  77.6%     -   16s
     0     0   70.00000    0   24  313.00000   70.00000  77.6%     -   17s
H    0     0                     106.0000000   70.00000  34.0%     -   22s
     0     2   70.00000    0   24  106.00000   70.00000  34.0%     -   24s
     1     3   70.00000    1   26  106.00000   70.00000  34.0%   418   26s
    11    13   70.00000    4   70  106.00000   70.00000  34.0%   143   30s
    55    62   70.00000    7  136  106.00000   70.00000  34.0%   161   37s
H   87    90                      92.0000000   70.00000  23.9%   166   58s
H  102    90                      89.0000000   70.00000  21.3%   154   59s
   119   106   70.00000    9  192   89.00000   70.00000  21.3%   153   71s
H  122   106                      87.0000000   70.00000  19.5%   149   71s
H  124   106                      86.0000000   70.00000  18.6%   147   71s
H  143   106                      84.0000000   70.00000  16.7%   132   71s
   151   111   70.00000   10   30   84.00000   70.00000  16.7%   136   75s
   225   149   70.00000   12   34   84.00000   70.00000  16.7%   102   80s
   322   246   70.41176   14   62   84.00000   70.00000  16.7%  82.8   85s
   408   350   70.00000   15   30   84.00000   70.00000  16.7%  69.4   90s
H  862   715                      77.0000000   70.00000  9.09%  42.7  108s
  1051   838 infeasible   26        77.00000   70.00000  9.09%  40.1  111s
  1809  1595   74.00000   43   49   77.00000   70.00000  9.09%  30.4  115s
H 2045  1622                      76.0000000   70.00000  7.89%  28.3  118s
  2080  1780   74.00000   47   46   76.00000   70.00000  7.89%  28.0  120s
  3055  1915   75.00000   60   24   76.00000   70.00000  7.89%  25.4  164s
  3057  1916   74.00000   47   16   76.00000   70.00000  7.89%  25.3  165s
  3062  1920   74.00000   93   98   76.00000   70.00000  7.89%  25.3  170s
  3068  1924   75.00000   98   39   76.00000   70.00000  7.89%  25.3  175s
  3069  1927   70.00000   10   38   76.00000   70.00000  7.89%  31.0  180s
  3083  1943   70.00000   13   39   76.00000   70.00000  7.89%  31.5  185s
H 3152  1898                      75.0000000   70.00000  6.67%  31.9  259s
H 3153  1806                      74.0000000   70.00000  5.41%  31.8  259s
H 3159  1717                      73.0000000   70.00000  4.11%  31.8  259s
  3184  1706   70.00000   16   38   73.00000   70.00000  4.11%  31.8  284s
  3216  1699   70.00000   17   38   73.00000   70.00000  4.11%  31.9  328s
H 3224  1614                      72.0000000   70.00000  2.78%  31.9  328s
H 3230  1533                      71.0000000   70.00000  1.41%  31.8  328s
  3248  1471   70.00000   17   39   71.00000   70.00000  1.41%  31.8  331s
  3356  1397     cutoff   17        71.00000   70.00000  1.41%  31.6  336s
  3377  1387   70.00000   24   84   71.00000   70.00000  1.41%  32.1  341s

Cutting planes:
  Learned: 5
  Gomory: 63
  Cover: 88
  Implied bound: 52
  Projected implied bound: 1
  Clique: 26
  MIR: 56
  StrongCG: 4
  Flow cover: 135
  Zero half: 2
  RLT: 17
  Relax-and-lift: 145

Explored 3385 nodes (128620 simplex iterations) in 342.44 seconds (18.56 work units)
Thread count was 32 (of 32 available processors)

Solution count 10: 71 72 73 ... 87

Optimal solution found (tolerance 1.00e-04)
Best objective 7.100000000000e+01, best bound 7.100000000000e+01, gap 0.0000%

Wrote result file 'RCPSP_899.sol'

